; Filename: jowitt_negm.inp
; Jowitt & Xu benchmark — PRVs on P01, P31, P25 @ 40 m (Negm 2024 / Araujo 2006)
; WNTR 1.5.0 · EPANET 2.2
[TITLE]
Jowitt-Xu-Negm-PRV

[JUNCTIONS]
;ID                      Elevation       Demand Pattern                 
 1                                 18               5 Fc                         ;
 2                                 18              10 Fc                         ;
 3                                 14               0 Fc                         ;
 4                                 12               5 Fc                         ;
 5                                 14              30 Fc                         ;
 6                                 15              10 Fc                         ;
 7                               14.5               0 Fc                         ;
 8                                 14              20 Fc                         ;
 9                                 14               0 Fc                         ;
 10                                15               5 Fc                         ;
 11                                12              10 Fc                         ;
 12                                15               0 Fc                         ;
 13                                23               0 Fc                         ;
 14                                20               5 Fc                         ;
 15                                 8              20 Fc                         ;
 16                                10               0 Fc                         ;
 17                                 7               0 Fc                         ;
 18                                 8               5 Fc                         ;
 19                                10               5 Fc                         ;
 20                                 7               0 Fc                         ;
 21                                10               0 Fc                         ;
 22                                15              20 Fc                         ;
 P01_m                           36.5               0 Fc                         ;
 P31_m                           32.5               0 Fc                         ;
 P25_m                             19               0 Fc                         ;
 27                                 0               0 Fc                         ;
 28                                 0               0 Fc                         ;

[RESERVOIRS]
;ID                                   Head                  Pattern
 23                                55                            ;
 24                                55                            ;
 25                                55                            ;

[TANKS]
;ID                              Elevation           Init Level            Min Level            Max Level             Diameter           Min Volume Volume Curve         Overflow            

[PIPES]
;ID                   Node1                Node2                              Length             Diameter            Roughness           Minor Loss               Status
 P02                  1                    2                               1930             457             110               0                 Open   ;
 P16                  23                   24                               454             457             110               0                 Open   ;
 P21                  24                   14                              2782             229             105               0                 Open   ;
 P36                  14                   25                               304             381             135               0                 Open   ;
 P15                  24                   10                              3382             305             100               0                 Open   ;
 P23                  24                   13                              1767             475             110               0                 Open   ;
 P24                  14                   13                              1014             381             135               0                 Open   ;
 P03                  2                    3                               5150             305              10               0                 Open   ;
 P30                  15                   16                               914             229             125               0                 Open   ;
 P32                  16                   17                               822             305             140               0                 Open   ;
 P38                  17                   18                               411             152             100               0                 Open   ;
 P39                  18                   20                               701             229             110               0                 Open   ;
 P33                  17                   19                              1072             229             135               0                 Open   ;
 P34                  19                   20                               864             152              90               0                 Open   ;
 P35                  20                   21                               711             152              90               0                 Open   ;
 P29                  15                   21                               832             152              90               0                 Open   ;
 P28                  15                   22                              2334             229             100               0                 Open   ;
 P20                  12                   11                               777             229              90               0                 Open   ;
 P19                  11                   10                               542             229              90               0                 Open   ;
 P18                  12                   8                               1600             457             110               0                 Open   ;
 P14                  10                   8                                249             305             105               0                 Open   ;
 P13                  8                    9                                443             229              90               0                 Open   ;
 P11                  6                    8                                743             381             110               0                 Open   ;
 P17                  8                    22                               931             229             125               0                 Open   ;
 P04                  3                    4                                326             152             100               0                 Open   ;
 P05                  4                    5                                844             229             110               0                 Open   ;
 P06                  3                    6                               1274             152             100               0                 Open   ;
 P07                  6                    5                               1115             229              90               0                 Open   ;
 P09                  6                    7                                615             381             110               0                 Open   ;
 P12                  22                   5                               1408             152             100               0                 Open   ;
 P08                  5                    7                                500             381             110               0                 Open   ;
 P10                  9                    6                                300             229              90               0                 Open   ;
 P40                  27                   12                              1996             229              95               0                 Open   ;
 P41                  28                   22                              2689             152             100               0                 Open   ;
 P44                  27                   15                               424             229              95               0                 Open   ;
 P45                  28                   21                               491             152              90               0                 Open   ;
 P01_u                23                   P01_m                            303             457             110               0                 Open   ;
 P31_u                25                   P31_m                          548.5             381               6               0                 Open   ;
 P25_u                13                   P25_m                            381             457             110               0                 Open   ;

[PUMPS]
;ID                   Node1                Node2                Properties          

[VALVES]
;ID                   Node1                Node2                            Diameter Type              Setting           Minor Loss
 PRV01                P01_m                1                                457 PRV               40               0   ;
 PRV31                P31_m                16                               381 PRV               40               0   ;
 PRV25                P25_m                12                               457 PRV               40               0   ;

[TAGS]
;type      name       tag       

[DEMANDS]
;ID        Demand     Pattern   

[STATUS]
;ID        Setting   

[PATTERNS]
;ID        Multipliers

Fc 0.617428 0.614988 0.614369 0.627047 0.625276 0.637661
Fc 0.641887 0.632860 0.639514 0.647420 0.649952 0.648918
Fc 0.659064 0.655152 0.664584 0.665889 0.654797 0.654973
Fc 0.663917 0.668041 0.664941 0.669046 0.674477 0.670047
Fc 0.676913 0.669898 0.671476 0.665910 0.666918 0.676439
Fc 0.662834 0.662558 0.673689 0.669069 0.663809 0.662510
Fc 0.660990 0.661002 0.667759 0.654611 0.656499 0.651565
Fc 0.654924 0.656490 0.653459 0.651997 0.651339 0.642845
Fc 0.646334 0.641224 0.644644 0.636813 0.637794 0.627103
Fc 0.622738 0.622504 0.623979 0.612119 0.618432 0.606416
Fc 0.606238 0.598597 0.607969 0.600276 0.597306 0.588462
Fc 0.589885 0.579004 0.580837 0.587033 0.581620 0.575197
Fc 0.565971 0.568322 0.555885 0.561006 0.547165 0.544131
Fc 0.540733 0.540385 0.539345 0.535970 0.522098 0.519313
Fc 0.520077 0.518242 0.512735 0.507316 0.503910 0.501311
Fc 0.497197 0.495099 0.488565 0.493803 0.478268 0.486951
Fc 0.485709 0.478621 0.463072 0.464131 0.465981 0.462189
Fc 0.452171 0.458976 0.446543 0.442620 0.437661 0.437627
Fc 0.440309 0.441524 0.435630 0.433782 0.424382 0.428060
Fc 0.415409 0.417129 0.417305 0.408334 0.411394 0.406467
Fc 0.403625 0.406214 0.399942 0.398388 0.410270 0.393605
Fc 0.408543 0.403564 0.399873 0.395449 0.398200 0.399956
Fc 0.398592 0.393395 0.389465 0.391923 0.394414 0.385475
Fc 0.383322 0.385800 0.390379 0.393714 0.387349 0.390047
Fc 0.387508 0.390529 0.386146 0.387332 0.393451 0.394992
Fc 0.390330 0.386982 0.385249 0.392841 0.398481 0.385440
Fc 0.397491 0.398621 0.385805 0.395741 0.398335 0.398164
Fc 0.389908 0.398733 0.401420 0.394387 0.392131 0.396256
Fc 0.402119 0.402117 0.401813 0.404690 0.404701 0.396439
Fc 0.397001 0.400130 0.402431 0.414548 0.404552 0.401290
Fc 0.406602 0.414540 0.416301 0.414819 0.416419 0.420677
Fc 0.408316 0.413257 0.417975 0.412513 0.419425 0.416095
Fc 0.416797 0.414838 0.419780 0.425269 0.427730 0.421264
Fc 0.422110 0.428568 0.424409 0.425449 0.417471 0.423174
Fc 0.428844 0.423240 0.421963 0.424245 0.425848 0.433230
Fc 0.417918 0.427942 0.431260 0.434155 0.421730 0.419601
Fc 0.418923 0.421522 0.424924 0.429168 0.432127 0.422491
Fc 0.425595 0.427090 0.420354 0.416910 0.416105 0.417342
Fc 0.428500 0.425758 0.412409 0.423667 0.415896 0.420212
Fc 0.415907 0.417949 0.413487 0.408271 0.414205 0.405490
Fc 0.406595 0.409772 0.412604 0.406434 0.404516 0.406657
Fc 0.407797 0.393338 0.403133 0.391543 0.401915 0.385769
Fc 0.383555 0.385526 0.383797 0.392909 0.382889 0.380869
Fc 0.386832 0.383188 0.371154 0.374140 0.382909 0.379529
Fc 0.377583 0.363687 0.366377 0.366839 0.366440 0.360448
Fc 0.361330 0.366011 0.362069 0.371047 0.367907 0.367284
Fc 0.358777 0.366759 0.365455 0.361237 0.364665 0.360662
Fc 0.357311 0.360873 0.370161 0.364801 0.363033 0.371743
Fc 0.372986 0.381968 0.383968 0.379573 0.379829 0.382786
Fc 0.393487 0.384305 0.386108 0.391965 0.402046 0.413029
Fc 0.415029 0.409488 0.425586 0.430512 0.428211 0.441927
Fc 0.442466 0.448344 0.454141 0.464850 0.473567 0.469122
Fc 0.475252 0.481896 0.500145 0.497578 0.503001 0.511214
Fc 0.525008 0.538130 0.546711 0.542907 0.548900 0.572083
Fc 0.580111 0.573261 0.590792 0.601172 0.611344 0.608618
Fc 0.624127 0.627311 0.638697 0.653626 0.657495 0.654673
Fc 0.674712 0.677271 0.688363 0.696300 0.706545 0.707324
Fc 0.706703 0.724641 0.729747 0.734534 0.746485 0.742112
Fc 0.745771 0.765201 0.768523 0.768516 0.772265 0.789128
Fc 0.786437 0.787238 0.799161 0.804521 0.797774 0.799201
Fc 0.815771 0.814139 0.820995 0.814097 0.815793 0.826585
Fc 0.823029 0.821064 0.818606 0.832221 0.818583 0.819368
Fc 0.825617 0.822747 0.828436 0.832824 0.824697 0.819647
Fc 0.820012 0.818438 0.819962 0.813908 0.823474 0.817263
Fc 0.820362 0.821611 0.820563 0.809262 0.810693 0.813289
Fc 0.813961 0.811386 0.804663 0.809430 0.804989 0.807678
Fc 0.799860 0.805815 0.804534 0.797685 0.802089 0.798033
Fc 0.798150 0.799353 0.785174 0.799438 0.785051 0.791697
Fc 0.791012 0.795562 0.795429 0.788719 0.789102 0.799178
Fc 0.796355 0.796037 0.800161 0.801028 0.810616 0.809081
Fc 0.804141 0.811039 0.820732 0.814901 0.825007 0.834750
Fc 0.826471 0.840938 0.839606 0.850047 0.864556 0.857955
Fc 0.870635 0.875863 0.887398 0.895911 0.889103 0.896160
Fc 0.902803 0.910888 0.925885 0.935078 0.935865 0.947633
Fc 0.950258 0.957459 0.981017 0.985588 0.995992 0.990988
Fc 1.006362 1.011777 1.025397 1.032659 1.045324 1.052519
Fc 1.054612 1.068511 1.067760 1.080484 1.092092 1.094545
Fc 1.102137 1.116224 1.125852 1.127387 1.130986 1.152143
Fc 1.150590 1.168062 1.174764 1.179422 1.184333 1.188905
Fc 1.191511 1.201385 1.201463 1.211712 1.219321 1.226129
Fc 1.222248 1.231522 1.234882 1.242016 1.253669 1.251850
Fc 1.248612 1.259340 1.262306 1.270814 1.270355 1.269456
Fc 1.274665 1.280781 1.285469 1.275749 1.277783 1.289366
Fc 1.287076 1.293302 1.284044 1.284226 1.285200 1.279690
Fc 1.284465 1.286459 1.295332 1.284857 1.292457 1.294147
Fc 1.283841 1.285075 1.285789 1.290447 1.282659 1.289961
Fc 1.282490 1.277793 1.274769 1.282107 1.274108 1.266886
Fc 1.276380 1.265440 1.272349 1.270729 1.261932 1.267013
Fc 1.259615 1.250371 1.260035 1.257239 1.252851 1.249055
Fc 1.246248 1.248021 1.247811 1.236158 1.233554 1.227535
Fc 1.223897 1.233672 1.218506 1.224244 1.213801 1.224516
Fc 1.217201 1.219008 1.205886 1.215494 1.201035 1.204456
Fc 1.193297 1.193238 1.195153 1.199441 1.197067 1.195184
Fc 1.194514 1.180286 1.184119 1.187521 1.178194 1.175457
Fc 1.174906 1.166438 1.168552 1.170122 1.158709 1.158935
Fc 1.156991 1.153034 1.154729 1.149882 1.158700 1.158203
Fc 1.151006 1.146779 1.156861 1.153975 1.144763 1.136309
Fc 1.150487 1.143322 1.139550 1.133927 1.144770 1.134078
Fc 1.138608 1.135882 1.132010 1.126325 1.133632 1.130308
Fc 1.139921 1.138920 1.126454 1.133478 1.124550 1.128569
Fc 1.122955 1.134417 1.123473 1.136631 1.123202 1.137764
Fc 1.133849 1.137970 1.139400 1.126622 1.137263 1.128716
Fc 1.130711 1.126197 1.130021 1.136385 1.135227 1.133059
Fc 1.137324 1.144792 1.133553 1.131489 1.135898 1.138203
Fc 1.143246 1.135992 1.150126 1.148351 1.147420 1.147530
Fc 1.150241 1.152135 1.138733 1.147819 1.138882 1.144669
Fc 1.146426 1.149886 1.141937 1.152708 1.151414 1.149941
Fc 1.146452 1.141679 1.153472 1.148055 1.140026 1.137770
Fc 1.152333 1.142975 1.140619 1.149405 1.149151 1.137044
Fc 1.141378 1.145742 1.136713 1.141420 1.141198 1.133185
Fc 1.126203 1.129672 1.122849 1.130995 1.128349 1.112112
Fc 1.108939 1.120713 1.113509 1.106565 1.102486 1.096793
Fc 1.103034 1.097207 1.097213 1.091121 1.090095 1.073553
Fc 1.075433 1.064260 1.066574 1.070317 1.060333 1.061930
Fc 1.043636 1.046713 1.039180 1.046175 1.040018 1.039107
Fc 1.021297 1.018294 1.013780 1.018345 1.016461 1.000208
Fc 1.003864 1.005511 0.995581 0.986815 0.987308 0.988128
Fc 0.973722 0.982359 0.963090 0.973450 0.957597 0.964134
Fc 0.947437 0.952074 0.955268 0.944472 0.940422 0.943693
Fc 0.941645 0.933664 0.928785 0.920148 0.918160 0.924593
Fc 0.924644 0.910776 0.908809 0.910073 0.910713 0.906441
Fc 0.909421 0.913846 0.897837 0.907551 0.904244 0.905239
Fc 0.895925 0.897093 0.892406 0.906187 0.890692 0.905321
Fc 0.892372 0.903801 0.893705 0.899893 0.894526 0.903334
Fc 0.891454 0.900216 0.890106 0.904570 0.900022 0.902439
Fc 0.903038 0.896919 0.896785 0.899412 0.892204 0.899708
Fc 0.900722 0.907908 0.904114 0.901365 0.897888 0.900968
Fc 0.912360 0.900837 0.899384 0.908321 0.916863 0.912626
Fc 0.917698 0.917989 0.907444 0.911772 0.908283 0.910064
Fc 0.922826 0.912866 0.909805 0.910679 0.922315 0.913870
Fc 0.924433 0.928343 0.925967 0.917302 0.920613 0.914986
Fc 0.923837 0.931065 0.921970 0.923212 0.924403 0.917553
Fc 0.922068 0.925864 0.925674 0.927178 0.935635 0.930551
Fc 0.926287 0.928690 0.931824 0.924331 0.925796 0.925206
Fc 0.934698 0.925355 0.923545 0.935890 0.936467 0.926484
Fc 0.932828 0.930158 0.933221 0.930368 0.935660 0.935039
Fc 0.929222 0.922018 0.921528 0.929127 0.932180 0.920780
Fc 0.926368 0.918709 0.925743 0.920523 0.933334 0.928686
Fc 0.931683 0.926686 0.926010 0.923160 0.924911 0.930305
Fc 0.918393 0.920254 0.926735 0.927825 0.927923 0.923606
Fc 0.926141 0.911872 0.920198 0.915781 0.918711 0.923800
Fc 0.921818 0.920593 0.908482 0.921744 0.910469 0.911586
Fc 0.914153 0.908724 0.910267 0.917482 0.920134 0.914046
Fc 0.904648 0.919057 0.912558 0.916553 0.910096 0.912919
Fc 0.908650 0.901966 0.916964 0.909152 0.905911 0.913525
Fc 0.909384 0.905606 0.911986 0.900771 0.903288 0.907941
Fc 0.907394 0.900777 0.911459 0.907139 0.913706 0.913626
Fc 0.904350 0.904922 0.912222 0.911781 0.906678 0.906270
Fc 0.910929 0.910757 0.917108 0.912612 0.913455 0.917402
Fc 0.913942 0.912213 0.909131 0.918620 0.918660 0.914956
Fc 0.924567 0.924932 0.915826 0.922729 0.921674 0.931799
Fc 0.935114 0.925473 0.930097 0.926243 0.925804 0.940505
Fc 0.937258 0.930650 0.948208 0.940673 0.942031 0.953775
Fc 0.956129 0.956223 0.955323 0.961032 0.957483 0.958890
Fc 0.959911 0.969552 0.966336 0.963415 0.973860 0.967614
Fc 0.977012 0.980202 0.982831 0.984519 0.978931 0.989405
Fc 0.980750 0.979952 0.980885 0.984373 0.998289 0.988152
Fc 0.997669 0.993242 1.002317 1.007354 1.002087 1.009588
Fc 1.014743 1.008687 1.013228 1.021475 1.017853 1.025277
Fc 1.017777 1.025208 1.025149 1.022336 1.034970 1.036569
Fc 1.034532 1.035319 1.031050 1.034363 1.037822 1.029320
Fc 1.038769 1.042236 1.042864 1.042023 1.048142 1.041068
Fc 1.047913 1.038549 1.040897 1.044972 1.051017 1.050563
Fc 1.055394 1.051945 1.046816 1.043585 1.048956 1.057529
Fc 1.052223 1.046241 1.051414 1.047936 1.054360 1.044676
Fc 1.046074 1.050866 1.060014 1.046812 1.048143 1.046030
Fc 1.056733 1.045325 1.053333 1.051502 1.057696 1.057328
Fc 1.048637 1.050719 1.048534 1.054115 1.051019 1.053431
Fc 1.042557 1.042125 1.050780 1.046066 1.046416 1.047425
Fc 1.037986 1.036610 1.034993 1.037445 1.036880 1.024399
Fc 1.023803 1.025509 1.023725 1.031161 1.020311 1.019458
Fc 1.011455 1.019181 1.017663 1.019627 1.014634 1.001777
Fc 1.007430 1.009684 1.010844 0.999006 1.000633 0.991514
Fc 0.994370 0.997202 0.985451 0.994680 0.986009 0.988598
Fc 0.975851 0.978627 0.975812 0.977834 0.967106 0.965641
Fc 0.962023 0.964122 0.969371 0.963343 0.953330 0.952125
Fc 0.962149 0.948854 0.956478 0.955999 0.948305 0.949060
Fc 0.950621 0.937873 0.947370 0.935207 0.945708 0.943712
Fc 0.936255 0.927869 0.929222 0.936722 0.927656 0.924495
Fc 0.927030 0.918344 0.927788 0.929161 0.929891 0.924256
Fc 0.917280 0.922164 0.914374 0.911604 0.916607 0.914218
Fc 0.917343 0.921988 0.912494 0.910036 0.919519 0.919393
Fc 0.923601 0.923096 0.919192 0.910310 0.924159 0.910431
Fc 0.917587 0.921149 0.915910 0.909618 0.916479 0.911988
Fc 0.922618 0.915637 0.918303 0.926087 0.920887 0.916179
Fc 0.921651 0.918129 0.927338 0.920705 0.930644 0.926801
Fc 0.915426 0.920814 0.923787 0.928384 0.924323 0.919583
Fc 0.922760 0.928790 0.933029 0.924419 0.919856 0.930420
Fc 0.921225 0.918589 0.931936 0.922458 0.923580 0.931264
Fc 0.916988 0.929297 0.917710 0.917510 0.916765 0.918056
Fc 0.926414 0.925350 0.910224 0.924072 0.912676 0.916516
Fc 0.904822 0.910677 0.904732 0.912652 0.900572 0.903294
Fc 0.900323 0.905370 0.895012 0.893729 0.887907 0.902132
Fc 0.889250 0.888027 0.880299 0.889590 0.887555 0.890298
Fc 0.879275 0.877135 0.868497 0.880231 0.879742 0.865087
Fc 0.867899 0.864919 0.869302 0.865362 0.864366 0.863245
Fc 0.850770 0.860208 0.849803 0.846346 0.854358 0.850012
Fc 0.848270 0.834601 0.836350 0.841904 0.837195 0.826819
Fc 0.828316 0.831458 0.822094 0.826083 0.831518 0.826278
Fc 0.820583 0.826159 0.829641 0.827706 0.828596 0.827965
Fc 0.824524 0.816819 0.816535 0.813520 0.817599 0.819864
Fc 0.815571 0.815712 0.819620 0.811241 0.821363 0.817285
Fc 0.816006 0.822681 0.811862 0.821083 0.821564 0.817652
Fc 0.817754 0.824026 0.826526 0.829397 0.816775 0.831921
Fc 0.818442 0.823443 0.823465 0.825124 0.835430 0.827192
Fc 0.825685 0.834441 0.838471 0.835086 0.839611 0.824482
Fc 0.833576 0.828586 0.825534 0.841665 0.842123 0.831001
Fc 0.835166 0.835845 0.842523 0.841419 0.831184 0.841090
Fc 0.840838 0.831653 0.831172 0.835682 0.833010 0.823307
Fc 0.828760 0.823351 0.827399 0.832884 0.829967 0.820759
Fc 0.816415 0.822323 0.822725 0.808389 0.808265 0.812774
Fc 0.799131 0.807774 0.797151 0.796889 0.798379 0.799938
Fc 0.788718 0.777174 0.787994 0.786001 0.777145 0.772196
Fc 0.769296 0.763988 0.759932 0.755274 0.751163 0.753992
Fc 0.736156 0.748286 0.731922 0.735730 0.735393 0.717697
Fc 0.715628 0.710448 0.712952 0.715073 0.706836 0.690508
Fc 0.688298 0.687691 0.678068 0.679381 0.685662 0.669858
Fc 0.676145 0.671014 0.657902 0.662773 0.654521 0.649538
Fc 0.650752 0.649124 0.632374 0.643069 0.636042 0.627370
Fc 0.627606 0.626285 0.616065 0.620629 0.611847 0.612340
Fc 0.606132 0.600642 0.609602 0.609536 0.595732 0.607032
Fc 0.600994 0.591436 0.595198 0.598205 0.596976 0.588579
Fc 0.580609 0.591216 0.592478 0.579823 0.585476 0.591207
Fc 0.578639 0.576898 0.588581 0.580743 0.576177 0.575237
Fc 0.582485 0.575411 0.583855 0.587281 0.577644 0.583789
Fc 0.579911 0.586948 0.585984 0.580937 0.583283 0.580065
Fc 0.593169 0.585109 0.582794 0.590086 0.583891 0.594912
Fc 0.595737 0.582543 0.584882 0.585160 0.589631 0.593982
Fc 0.595711 0.603082 0.591245 0.599817 0.604427 0.601491
Fc 0.602147 0.603659 0.599227 0.601453 0.612248 0.607762
Fc 0.605388 0.604198 0.610095 0.612744 0.622302 0.611987
Fc 0.619759 0.625926 0.620510 0.615824 0.625936 0.614992
Fc 0.622164 0.633414 0.631312 0.622984 0.635731 0.623862
Fc 0.637494 0.627060 0.626477 0.628054 0.636350 0.630975
Fc 0.640996 0.633080 0.644020 0.644350 0.633016 0.632220
Fc 0.636723 0.638922 0.644271 0.644599 0.634720 0.630340
Fc 0.636269 0.643097 0.640878 0.634795 0.630954 0.644388
Fc 0.633594 0.643470 0.627916 0.629115 0.638360 0.631353
Fc 0.628707 0.629590 0.628013 0.633237 0.623134 0.627945
Fc 0.630786 0.621249 0.613030 0.608762 0.612574 0.617421

[CURVES]
;ID         X-Value      Y-Value     

[CONTROLS]

[RULES]

[ENERGY]
GLOBAL EFFICIENCY      75.0000
GLOBAL PRICE           0.0000
DEMAND CHARGE          0.0000

[EMITTERS]
;ID        Flow coefficient
1          0.012055  
2          0.033656  
3          0.032088  
4          0.005562  
5          0.018383  
6          0.019238  
7          0.0053    
8          0.018853  
9          0.003532  
10         0.019837  
11         0.00627   
12         0.02441   
13         0.016842  
14         0.01949   
15         0.028884  
16         0.013467  
17         0.010957  
18         0.005286  
19         0.009203  
20         0.010819  
21         0.020118  
22         0.034997  

[QUALITY]

[SOURCES]
;Node      Type       Quality    Pattern   

[REACTIONS]
;Type           Pipe/Tank               Coefficient

 ORDER BULK 1
 ORDER TANK 1
 ORDER WALL 1
 GLOBAL BULK 0.0000    
 GLOBAL WALL 0.0000    

[MIXING]
;Tank ID             Model Fraction

[TIMES]
DURATION             24:00:00
HYDRAULIC TIMESTEP   01:00:00
QUALITY TIMESTEP     00:06:00
PATTERN TIMESTEP     00:01:00
PATTERN START        00:00:00
REPORT TIMESTEP      01:00:00
REPORT START         00:00:00
START CLOCKTIME      00:00:00 AM
RULE TIMESTEP        00:06:00
STATISTIC            NONE      

[REPORT]
STATUS     FULL
PAGE       0

[OPTIONS]
UNITS                LPS                 
HEADLOSS             H-W                 
SPECIFIC GRAVITY     1
VISCOSITY            1
TRIALS               100
ACCURACY             0.001
CHECKFREQ            2
MAXCHECK             10
UNBALANCED           CONTINUE            
PATTERN              Fc                  
DEMAND MULTIPLIER    1
EMITTER EXPONENT     1.18
QUALITY              NONE                
DIFFUSIVITY          1
TOLERANCE            0.01

[COORDINATES]
;Node      X-Coord    Y-Coord   
1               -1864.905000000       8032.305000000
2                -954.479000000       8017.621000000
3                -161.527000000       8002.937000000
4                 778.267000000       7988.253000000
5                2576.834000000       7973.940000000
6                 792.952000000       6989.721000000
7                1717.358000000       6992.620000000
8                 323.054000000       6108.664000000
9                 910.426000000       6108.664000000
10               -543.319000000       6079.295000000
11               -513.950000000       5227.606000000
12               -469.897000000       4375.918000000
13              -1615.272000000       4361.233000000
14              -2672.540000000       3612.335000000
15               -396.476000000       3289.280000000
16              -1585.903000000       2364.170000000
17              -1021.454000000       2354.028000000
18               -252.223000000       1607.093000000
19               -363.706000000       2298.286000000
20                602.056000000       2320.117000000
21               1464.611000000       2331.731000000
22               2902.738000000       2376.324000000
P01_m           -2364.170500000       8024.963000000
P31_m           -2092.511000000       2327.459500000
P25_m           -1042.584500000       4368.575500000
27               -396.384000000       3713.491000000
28              1954.103000000       2364.395000000
23              -2863.436000000       8017.621000000
24              -2834.068000000       5124.816000000
25              -2599.119000000       2290.749000000

[VERTICES]
;Link      X-Coord    Y-Coord   

[LABELS]

[BACKDROP]
DIMENSIONS    0.000    0.000    10000.000    10000.000
UNITS    NONE
OFFSET    0.00    0.00

[END]
