[TITLE]


[JUNCTIONS]
;ID              	Elev        	Demand      	Pattern         
 1               	18          	5           	Fc              	;
 2               	18          	10          	Fc              	;
 3               	14          	0           	Fc              	;
 4               	12          	5           	Fc              	;
 5               	14          	30          	Fc              	;
 6               	15          	10          	Fc              	;
 7               	14.5        	0           	Fc              	;
 8               	14          	20          	Fc              	;
 9               	14          	0           	Fc              	;
 10              	15          	5           	Fc              	;
 11              	12          	10          	Fc              	;
 12              	15          	0           	Fc              	;
 13              	23          	0           	Fc              	;
 14              	20          	5           	Fc              	;
 15              	8           	20          	Fc              	;
 16              	10          	0           	Fc              	;
 17              	7           	0           	Fc              	;
 18              	8           	5           	Fc              	;
 19              	10          	5           	Fc              	;
 20              	7           	0           	Fc              	;
 21              	10          	0           	Fc              	;
 22              	15          	20          	Fc              	;
 26              	0           	0           	                	;
 27              	0           	0           	                	;
 28              	0           	0           	                	;

[RESERVOIRS]
;ID              	Head        	Pattern         
 23              	55          	                	;
 24              	55          	                	;
 25              	55          	                	;

[TANKS]
;ID              	Elevation   	InitLevel   	MinLevel    	MaxLevel    	Diameter    	MinVol      	VolCurve        	Overflow

[PIPES]
;ID              	Node1           	Node2           	Length      	Diameter    	Roughness   	MinorLoss   	Status
 P01             	23              	1               	606         	457         	110         	0           	Open  	;
 P02             	1               	2               	1930        	457         	110         	0           	Open  	;
 P16             	23              	24              	454         	457         	110         	0           	Open  	;
 P21             	24              	14              	2782        	229         	105         	0           	Open  	;
 P36             	14              	25              	304         	381         	135         	0           	Open  	;
 P15             	24              	10              	3382        	305         	100         	0           	Open  	;
 P23             	24              	13              	1767        	475         	110         	0           	Open  	;
 P24             	14              	13              	1014        	381         	135         	0           	Open  	;
 P31             	25              	16              	1097        	381         	6           	0           	Open  	;
 P03             	2               	3               	5150        	305         	10          	0           	Open  	;
 P30             	15              	16              	914         	229         	125         	0           	Open  	;
 P32             	16              	17              	822         	305         	140         	0           	Open  	;
 P38             	17              	18              	411         	152         	100         	0           	Open  	;
 P39             	18              	20              	701         	229         	110         	0           	Open  	;
 P33             	17              	19              	1072        	229         	135         	0           	Open  	;
 P34             	19              	20              	864         	152         	90          	0           	Open  	;
 P35             	20              	21              	711         	152         	90          	0           	Open  	;
 P29             	15              	21              	832         	152         	90          	0           	Open  	;
 P28             	15              	22              	2334        	229         	100         	0           	Open  	;
 P20             	12              	11              	777         	229         	90          	0           	Open  	;
 P19             	11              	10              	542         	229         	90          	0           	Open  	;
 P18             	12              	8               	1600        	457         	110         	0           	Open  	;
 P14             	10              	8               	249         	305         	105         	0           	Open  	;
 P13             	8               	9               	443         	229         	90          	0           	Open  	;
 P11             	6               	8               	743         	381         	110         	0           	Open  	;
 P17             	8               	22              	931         	229         	125         	0           	Open  	;
 P04             	3               	4               	326         	152         	100         	0           	Open  	;
 P05             	4               	5               	844         	229         	110         	0           	Open  	;
 P06             	3               	6               	1274        	152         	100         	0           	Open  	;
 P07             	6               	5               	1115        	229         	90          	0           	Open  	;
 P09             	6               	7               	615         	381         	110         	0           	Open  	;
 P12             	22              	5               	1408        	152         	100         	0           	Open  	;
 P08             	5               	7               	500         	381         	110         	0           	Open  	;
 P10             	9               	6               	300         	229         	90          	0           	Open  	;
 P37             	13              	26              	762         	457         	110         	0           	Open  	;
 P40             	27              	12              	1996        	229         	95          	0           	Open  	;
 P41             	28              	22              	2689        	152         	100         	0           	Open  	;

[PUMPS]
;ID              	Node1           	Node2           	Parameters

[VALVES]
;ID              	Node1           	Node2           	Diameter    	Type	Setting     	MinorLoss 
 1               	26              	12              	457         	PRV 100 0           	;
 2               	27              	15              	229         	PRV 100 0           	;
 3               	28              	21              	152         	PRV 100 0           	;

[TAGS]

[DEMANDS]
;Junction        	Demand      	Pattern         	Category

[STATUS]
;ID              	Status/Setting

[PATTERNS]
;ID              	Multipliers
;
 Fc              	0.617428045 	0.614988379 	0.614368892 	0.627047032 	0.625275776 	0.637661118 
 Fc              	0.641887269 	0.632859819 	0.639514266 	0.647419542 	0.649952419 	0.648918055 
 Fc              	0.659064301 	0.65515167  	0.664584334 	0.665888892 	0.654796603 	0.654973019 
 Fc              	0.663916824 	0.668040886 	0.664940677 	0.669046071 	0.67447746  	0.670047152 
 Fc              	0.676912838 	0.669897564 	0.67147568  	0.665910021 	0.666917848 	0.67643928  
 Fc              	0.662834247 	0.662558407 	0.673689248 	0.669068506 	0.663809373 	0.662510346 
 Fc              	0.660989856 	0.661002227 	0.667759294 	0.654611012 	0.656498896 	0.651565303 
 Fc              	0.654924042 	0.656490208 	0.653459285 	0.651997324 	0.651338959 	0.642845195 
 Fc              	0.646333611 	0.64122382  	0.644644245 	0.636813044 	0.637794069 	0.627102517 
 Fc              	0.622738148 	0.622504192 	0.623979491 	0.61211888  	0.618431729 	0.606415798 
 Fc              	0.606238377 	0.598597158 	0.607969104 	0.600275849 	0.597306021 	0.588461641 
 Fc              	0.589884896 	0.579004472 	0.580836625 	0.587033263 	0.581619745 	0.575197442 
 Fc              	0.565971036 	0.568321987 	0.555885411 	0.561006064 	0.547164927 	0.544130846 
 Fc              	0.540732895 	0.540385263 	0.539344679 	0.535970302 	0.522098304 	0.51931336  
 Fc              	0.520077354 	0.518241617 	0.512734586 	0.507316497 	0.503910013 	0.501311244 
 Fc              	0.497196667 	0.495099204 	0.488565144 	0.493803331 	0.478268431 	0.486950817 
 Fc              	0.485708963 	0.478620591 	0.463071602 	0.464131337 	0.465980574 	0.462188738 
 Fc              	0.452170721 	0.458975902 	0.446543079 	0.442619743 	0.437661459 	0.437627321 
 Fc              	0.440309216 	0.441523766 	0.435630144 	0.433781567 	0.424382065 	0.428059913 
 Fc              	0.415408645 	0.41712874  	0.417304724 	0.40833401  	0.411393922 	0.406466659 
 Fc              	0.403624606 	0.406214268 	0.39994191  	0.39838828  	0.410270494 	0.393604545 
 Fc              	0.408542895 	0.403563575 	0.399872545 	0.395449373 	0.398199808 	0.399956326 
 Fc              	0.398591554 	0.393394559 	0.389465346 	0.391922794 	0.394414319 	0.385474893 
 Fc              	0.383322016 	0.385799844 	0.390378848 	0.393713552 	0.387349154 	0.390047488 
 Fc              	0.387507604 	0.390528974 	0.386145965 	0.387331713 	0.393450821 	0.39499192  
 Fc              	0.39032975  	0.386982256 	0.385248829 	0.392841456 	0.398481006 	0.385439793 
 Fc              	0.397490871 	0.398621283 	0.385805323 	0.395740938 	0.398335331 	0.398163583 
 Fc              	0.389907682 	0.398733013 	0.401420281 	0.394387339 	0.392130534 	0.396255868 
 Fc              	0.402118958 	0.402117408 	0.401812941 	0.404689845 	0.404700866 	0.396438975 
 Fc              	0.397000592 	0.400129833 	0.402430848 	0.414548067 	0.40455248  	0.40129031  
 Fc              	0.406602016 	0.414540261 	0.416301256 	0.414818971 	0.41641884  	0.420677154 
 Fc              	0.408316015 	0.413257262 	0.417975471 	0.412513048 	0.419424784 	0.416094978 
 Fc              	0.416797357 	0.414838308 	0.419779717 	0.425268534 	0.427729732 	0.421263564 
 Fc              	0.422109567 	0.42856821  	0.424408975 	0.425448813 	0.417471313 	0.423174    
 Fc              	0.428843784 	0.423239553 	0.421963335 	0.424244798 	0.425848116 	0.433230225 
 Fc              	0.417917853 	0.427942238 	0.431259961 	0.434155072 	0.421730156 	0.419601372 
 Fc              	0.418922529 	0.421522263 	0.424923606 	0.429168217 	0.432126957 	0.422491379 
 Fc              	0.42559475  	0.427089834 	0.420354434 	0.41691027  	0.416104925 	0.417341766 
 Fc              	0.428500349 	0.425758083 	0.412408908 	0.423666977 	0.415896066 	0.42021219  
 Fc              	0.415907161 	0.4179487   	0.413486957 	0.408271106 	0.414204636 	0.405489911 
 Fc              	0.406595135 	0.409772241 	0.41260406  	0.406433638 	0.404515527 	0.40665666  
 Fc              	0.407796653 	0.393338179 	0.403132503 	0.391543047 	0.401914851 	0.385769237 
 Fc              	0.383554926 	0.385525531 	0.383796971 	0.392909368 	0.382889249 	0.380869145 
 Fc              	0.386832389 	0.383188111 	0.371153884 	0.374140433 	0.382908617 	0.379528656 
 Fc              	0.377583281 	0.363687307 	0.366377125 	0.366839447 	0.366440401 	0.360448366 
 Fc              	0.361329984 	0.366010745 	0.362068539 	0.371047261 	0.36790728  	0.367283831 
 Fc              	0.358777162 	0.366759039 	0.365454898 	0.361237259 	0.36466499  	0.360662047 
 Fc              	0.357310753 	0.360873291 	0.370161193 	0.364800662 	0.363032884 	0.371743156 
 Fc              	0.37298558  	0.381967883 	0.383967745 	0.379572582 	0.379829153 	0.382785538 
 Fc              	0.393487203 	0.384305111 	0.386107921 	0.391964886 	0.402045798 	0.413029014 
 Fc              	0.415029363 	0.409488379 	0.425585833 	0.430511933 	0.428210857 	0.441926789 
 Fc              	0.442465663 	0.44834445  	0.454140651 	0.464850307 	0.473566697 	0.469121521 
 Fc              	0.475252352 	0.48189632  	0.50014469  	0.497577706 	0.503001456 	0.511213798 
 Fc              	0.525008378 	0.538130141 	0.546711133 	0.542907489 	0.548899922 	0.572082614 
 Fc              	0.580110847 	0.573261268 	0.590791548 	0.601172344 	0.611343877 	0.608618312 
 Fc              	0.624126985 	0.627310934 	0.638696783 	0.65362635  	0.657494657 	0.654672982 
 Fc              	0.674711613 	0.677270519 	0.6883629   	0.696299897 	0.706544927 	0.707324463 
 Fc              	0.706703228 	0.724640693 	0.729746679 	0.734534333 	0.746484796 	0.742112018 
 Fc              	0.745770604 	0.765201379 	0.768522965 	0.76851632  	0.772264846 	0.789128114 
 Fc              	0.786437208 	0.787237898 	0.799161406 	0.804520969 	0.79777396  	0.799200844 
 Fc              	0.815771494 	0.814138832 	0.820994638 	0.814097329 	0.815793408 	0.826585209 
 Fc              	0.823028931 	0.82106428  	0.818606246 	0.832220581 	0.81858263  	0.81936836  
 Fc              	0.825617124 	0.822747017 	0.828436282 	0.83282363  	0.824696649 	0.819646573 
 Fc              	0.820012479 	0.818438235 	0.819962245 	0.81390841  	0.823473884 	0.817262827 
 Fc              	0.820362037 	0.821610817 	0.820563024 	0.809262304 	0.810692791 	0.813288981 
 Fc              	0.813960517 	0.81138551  	0.804662865 	0.809430403 	0.804988822 	0.807677638 
 Fc              	0.799860121 	0.805815222 	0.804534114 	0.797684607 	0.802089313 	0.798033261 
 Fc              	0.798149777 	0.799353177 	0.785173554 	0.799437891 	0.78505146  	0.791696856 
 Fc              	0.791011879 	0.795562276 	0.795429013 	0.788719179 	0.789101909 	0.799178233 
 Fc              	0.796355159 	0.796036897 	0.80016137  	0.801027956 	0.810615526 	0.809081456 
 Fc              	0.804140582 	0.811038843 	0.820731634 	0.814900644 	0.825006694 	0.834750371 
 Fc              	0.826470815 	0.840938185 	0.839605855 	0.850047194 	0.864555757 	0.857955287 
 Fc              	0.870634909 	0.875863423 	0.887397702 	0.895911079 	0.889102568 	0.896160389 
 Fc              	0.902802982 	0.910888216 	0.925884892 	0.935078154 	0.935864527 	0.947633094 
 Fc              	0.950258469 	0.957458591 	0.981016583 	0.985587598 	0.995991623 	0.990988209 
 Fc              	1.006361741 	1.01177732  	1.025397032 	1.032659215 	1.045323619 	1.052519499 
 Fc              	1.054612131 	1.068511218 	1.067759625 	1.080483667 	1.092091613 	1.094545469 
 Fc              	1.102137465 	1.116224173 	1.125852244 	1.127386802 	1.130986131 	1.152143145 
 Fc              	1.150589617 	1.168062143 	1.174763671 	1.179422025 	1.18433277  	1.188905495 
 Fc              	1.191510573 	1.201385397 	1.201463019 	1.211712455 	1.219321417 	1.226129441 
 Fc              	1.222248376 	1.231521675 	1.234881655 	1.242016256 	1.253669053 	1.251849789 
 Fc              	1.248611679 	1.259339793 	1.262306295 	1.270813832 	1.270355313 	1.269456142 
 Fc              	1.274665346 	1.280780647 	1.285468955 	1.275749233 	1.277783042 	1.289366001 
 Fc              	1.287075714 	1.293302164 	1.284044423 	1.284225536 	1.285200448 	1.279689683 
 Fc              	1.284465423 	1.286458612 	1.295332232 	1.284856865 	1.29245671  	1.294146523 
 Fc              	1.283840554 	1.285075271 	1.285788763 	1.290446941 	1.282659244 	1.289960758 
 Fc              	1.282490017 	1.277793244 	1.274769225 	1.282106968 	1.274107795 	1.266886227 
 Fc              	1.276379605 	1.2654404   	1.272349416 	1.27072901  	1.26193206  	1.267013021 
 Fc              	1.259615159 	1.250370765 	1.260035308 	1.257239123 	1.252851325 	1.249055095 
 Fc              	1.24624829  	1.248020939 	1.247810584 	1.236157682 	1.23355356  	1.227534594 
 Fc              	1.223897013 	1.233672006 	1.218505506 	1.224243663 	1.213800784 	1.224515862 
 Fc              	1.217201058 	1.219008465 	1.205885643 	1.215494082 	1.201034984 	1.204455679 
 Fc              	1.193296774 	1.193237548 	1.195153251 	1.199440723 	1.19706654  	1.19518432  
 Fc              	1.194514123 	1.180286448 	1.18411911  	1.187521261 	1.178193939 	1.175456753 
 Fc              	1.174905836 	1.166437626 	1.16855234  	1.170122286 	1.158709125 	1.158935125 
 Fc              	1.156991148 	1.153034185 	1.154729151 	1.149882236 	1.158699585 	1.158203143 
 Fc              	1.151006419 	1.146778885 	1.156860542 	1.153975126 	1.144763037 	1.136309351 
 Fc              	1.15048711  	1.143321756 	1.139549871 	1.133926567 	1.144770251 	1.134077919 
 Fc              	1.13860803  	1.135881834 	1.132010473 	1.126324744 	1.133631885 	1.130307667 
 Fc              	1.139921013 	1.138919857 	1.126454229 	1.133477887 	1.12455032  	1.128568907 
 Fc              	1.122955223 	1.134416591 	1.123472784 	1.136630877 	1.123201862 	1.137763582 
 Fc              	1.133848941 	1.137970166 	1.139400195 	1.126621867 	1.13726265  	1.12871593  
 Fc              	1.130710958 	1.126196653 	1.13002116  	1.136385131 	1.13522677  	1.133059017 
 Fc              	1.137323691 	1.144792482 	1.133552831 	1.131488797 	1.135897971 	1.138203324 
 Fc              	1.143246321 	1.135991594 	1.150125692 	1.148350658 	1.14742024  	1.14753023  
 Fc              	1.150240682 	1.152134506 	1.138733154 	1.147819187 	1.138882069 	1.144668864 
 Fc              	1.146426425 	1.149886135 	1.14193725  	1.152708399 	1.151414042 	1.149941401 
 Fc              	1.146451797 	1.141678632 	1.15347246  	1.148054874 	1.140026287 	1.137769802 
 Fc              	1.152333185 	1.142974735 	1.140619027 	1.149404821 	1.149151317 	1.137044257 
 Fc              	1.141378255 	1.145741757 	1.136712993 	1.141419587 	1.14119828  	1.133184582 
 Fc              	1.126202983 	1.129672499 	1.122849165 	1.130995138 	1.128349349 	1.112112355 
 Fc              	1.108938505 	1.120712829 	1.113508949 	1.106564712 	1.102485552 	1.096793416 
 Fc              	1.103033791 	1.097207236 	1.097213184 	1.091120878 	1.090095291 	1.073553284 
 Fc              	1.075433482 	1.064259846 	1.066573915 	1.070317407 	1.060333124 	1.061929897 
 Fc              	1.043635683 	1.046713305 	1.039180273 	1.0461747   	1.04001798  	1.039107126 
 Fc              	1.021297332 	1.018294097 	1.013780438 	1.018345424 	1.016461442 	1.000207787 
 Fc              	1.003864335 	1.005510763 	0.995581397 	0.986814591 	0.987308418 	0.988127702 
 Fc              	0.973722308 	0.982358539 	0.963090258 	0.973450332 	0.957596638 	0.96413412  
 Fc              	0.947437133 	0.95207404  	0.955267785 	0.944471592 	0.94042196  	0.943692648 
 Fc              	0.941645014 	0.933664285 	0.928785121 	0.920148062 	0.91816038  	0.924592679 
 Fc              	0.924643615 	0.910775672 	0.908809416 	0.910073251 	0.910713334 	0.906441246 
 Fc              	0.909421323 	0.913846407 	0.897837117 	0.907551332 	0.904244429 	0.90523938  
 Fc              	0.895925373 	0.897093145 	0.892406442 	0.906186595 	0.890691817 	0.905320642 
 Fc              	0.892372032 	0.903801287 	0.893705194 	0.899893168 	0.894526072 	0.903333898 
 Fc              	0.891453503 	0.900215797 	0.890106101 	0.904569919 	0.900021625 	0.902439397 
 Fc              	0.903038192 	0.896919153 	0.896785143 	0.89941165  	0.892204415 	0.899708187 
 Fc              	0.900722224 	0.90790783  	0.90411367  	0.90136484  	0.897887824 	0.900968432 
 Fc              	0.912360203 	0.900836822 	0.899383917 	0.908321297 	0.916862641 	0.912625538 
 Fc              	0.917697797 	0.917989426 	0.907444007 	0.911771551 	0.908283345 	0.910064337 
 Fc              	0.922826243 	0.912866342 	0.909805478 	0.910679297 	0.922314976 	0.913869694 
 Fc              	0.924432504 	0.928343146 	0.925967099 	0.917302491 	0.920613393 	0.91498595  
 Fc              	0.923836721 	0.931064732 	0.921969998 	0.923212164 	0.924403178 	0.91755315  
 Fc              	0.922068082 	0.925863814 	0.925674179 	0.927177694 	0.93563521  	0.930551392 
 Fc              	0.926286602 	0.928689536 	0.93182352  	0.924330608 	0.925796058 	0.92520639  
 Fc              	0.934697876 	0.925354578 	0.923545274 	0.93588957  	0.936466788 	0.926483829 
 Fc              	0.932828433 	0.930157687 	0.933221461 	0.930368079 	0.935660474 	0.935039077 
 Fc              	0.929221675 	0.922018432 	0.921528394 	0.929126791 	0.932179908 	0.920779917 
 Fc              	0.926368115 	0.918709116 	0.925743246 	0.920523016 	0.933334229 	0.928686477 
 Fc              	0.931683013 	0.926685721 	0.926009514 	0.923160216 	0.924911415 	0.930304885 
 Fc              	0.918393439 	0.920253855 	0.926734669 	0.927824934 	0.927923338 	0.923605762 
 Fc              	0.92614075  	0.911872445 	0.92019798  	0.915781407 	0.918711119 	0.923799833 
 Fc              	0.921818395 	0.920592506 	0.908481555 	0.921743994 	0.910469354 	0.91158613  
 Fc              	0.914153017 	0.908724289 	0.910267041 	0.917482246 	0.920133872 	0.914045778 
 Fc              	0.904648238 	0.919057113 	0.912557791 	0.91655332  	0.910095654 	0.912919067 
 Fc              	0.908649724 	0.901966342 	0.916963885 	0.909152027 	0.905910714 	0.913524817 
 Fc              	0.909383852 	0.905606479 	0.911985591 	0.900771487 	0.903287621 	0.907940997 
 Fc              	0.907393825 	0.900777148 	0.911458981 	0.907139275 	0.913705716 	0.913626346 
 Fc              	0.904349942 	0.904922206 	0.912221919 	0.91178069  	0.906678235 	0.906269981 
 Fc              	0.91092944  	0.910757389 	0.917108291 	0.912611893 	0.913455282 	0.91740197  
 Fc              	0.913942334 	0.912212952 	0.909130763 	0.918620162 	0.918660113 	0.914955537 
 Fc              	0.924567285 	0.924932404 	0.915826118 	0.922729359 	0.921674198 	0.931798831 
 Fc              	0.935113804 	0.925472778 	0.930096537 	0.926242945 	0.925803998 	0.940505228 
 Fc              	0.937258076 	0.930650473 	0.948208497 	0.940672611 	0.94203145  	0.953774888 
 Fc              	0.956128693 	0.95622286  	0.955323119 	0.96103196  	0.957483347 	0.958890055 
 Fc              	0.959910935 	0.96955223  	0.966336292 	0.963415113 	0.973860368 	0.967613642 
 Fc              	0.977011695 	0.980201502 	0.982830912 	0.984518983 	0.978930591 	0.989404655 
 Fc              	0.980749945 	0.979952282 	0.980885217 	0.984373469 	0.998289218 	0.98815188  
 Fc              	0.997669458 	0.993242161 	1.002316937 	1.007353964 	1.002087421 	1.009587622 
 Fc              	1.014742574 	1.008687182 	1.013227904 	1.021474921 	1.017852996 	1.02527667  
 Fc              	1.017777362 	1.025208177 	1.025148672 	1.022335997 	1.034969654 	1.036568516 
 Fc              	1.034532419 	1.035319351 	1.031050002 	1.034363315 	1.037821514 	1.029320444 
 Fc              	1.038769072 	1.042236462 	1.042863762 	1.042023253 	1.048141739 	1.041068308 
 Fc              	1.047913388 	1.038549182 	1.040896884 	1.044971968 	1.051017067 	1.050562975 
 Fc              	1.055394175 	1.051945422 	1.046816056 	1.043585339 	1.048956469 	1.057529398 
 Fc              	1.052223479 	1.04624098  	1.051414076 	1.047936204 	1.054360412 	1.044676279 
 Fc              	1.046073973 	1.050866358 	1.060014363 	1.046812347 	1.048142986 	1.046029765 
 Fc              	1.05673326  	1.045325108 	1.053333136 	1.051502415 	1.057695911 	1.057327753 
 Fc              	1.048637389 	1.05071868  	1.048534216 	1.054114802 	1.051019374 	1.053431414 
 Fc              	1.042556554 	1.042125232 	1.050779755 	1.04606598  	1.046415835 	1.047424963 
 Fc              	1.037986035 	1.03661044  	1.034993075 	1.037444688 	1.036879688 	1.024399288 
 Fc              	1.023802624 	1.025508823 	1.023725392 	1.031160776 	1.020311053 	1.019457778 
 Fc              	1.011454657 	1.019181389 	1.017662725 	1.019626808 	1.01463379  	1.001777339 
 Fc              	1.007429734 	1.009683934 	1.010843997 	0.999006007 	1.000633183 	0.991514143 
 Fc              	0.994369751 	0.997202317 	0.985451211 	0.994680468 	0.986008675 	0.988597807 
 Fc              	0.975851458 	0.97862711  	0.975812339 	0.977833901 	0.967106352 	0.965641445 
 Fc              	0.962023381 	0.964121972 	0.969371478 	0.963342907 	0.953329612 	0.952125067 
 Fc              	0.962148904 	0.948854395 	0.956477768 	0.955998548 	0.948304767 	0.949059675 
 Fc              	0.950620629 	0.937872902 	0.947369702 	0.935206515 	0.945707591 	0.943712425 
 Fc              	0.936254673 	0.92786948  	0.929222452 	0.936721819 	0.927656209 	0.924495234 
 Fc              	0.927029542 	0.918344091 	0.927788016 	0.929160925 	0.92989074  	0.92425581  
 Fc              	0.917280482 	0.922163618 	0.914374138 	0.91160448  	0.916607276 	0.914218411 
 Fc              	0.917342617 	0.921988336 	0.912493551 	0.910035803 	0.919519114 	0.919393315 
 Fc              	0.923600772 	0.92309561  	0.919191942 	0.910310128 	0.924158947 	0.91043089  
 Fc              	0.917587417 	0.921148824 	0.915910459 	0.909618463 	0.916478729 	0.911988377 
 Fc              	0.922617898 	0.91563666  	0.918303162 	0.926086985 	0.92088662  	0.91617877  
 Fc              	0.921651283 	0.918129486 	0.927338369 	0.920705405 	0.930644413 	0.92680079  
 Fc              	0.915426133 	0.920814498 	0.923786768 	0.928384035 	0.924323111 	0.919583062 
 Fc              	0.922760086 	0.928789868 	0.933028828 	0.924419373 	0.919855513 	0.930420485 
 Fc              	0.921224592 	0.918589089 	0.931936427 	0.922457742 	0.923580246 	0.931264414 
 Fc              	0.91698784  	0.929297204 	0.917709895 	0.917510321 	0.916764955 	0.918055777 
 Fc              	0.926413949 	0.925349601 	0.910223578 	0.924072197 	0.912675721 	0.91651583  
 Fc              	0.904822478 	0.91067744  	0.904732244 	0.91265229  	0.900571983 	0.903294128 
 Fc              	0.900323017 	0.905369934 	0.895012365 	0.893728572 	0.887907182 	0.902131614 
 Fc              	0.889250178 	0.888027491 	0.880299355 	0.889590421 	0.88755539  	0.890298199 
 Fc              	0.879275087 	0.877135309 	0.868496507 	0.880230592 	0.879742224 	0.865086893 
 Fc              	0.867899312 	0.864919409 	0.869302032 	0.865362214 	0.864366454 	0.86324523  
 Fc              	0.85077031  	0.860208197 	0.849802695 	0.846346327 	0.854357753 	0.850012476 
 Fc              	0.848269632 	0.834600715 	0.836349604 	0.841904151 	0.837194978 	0.826819392 
 Fc              	0.828315975 	0.83145751  	0.822094274 	0.826083203 	0.831518151 	0.826277913 
 Fc              	0.820582563 	0.8261592   	0.829641188 	0.827705603 	0.828596031 	0.827964746 
 Fc              	0.824524378 	0.816818719 	0.816534784 	0.813519906 	0.817598572 	0.819863816 
 Fc              	0.815570652 	0.81571237  	0.819620486 	0.811241427 	0.821362897 	0.81728515  
 Fc              	0.816006366 	0.822680685 	0.811862232 	0.82108252  	0.821563658 	0.817652186 
 Fc              	0.817753745 	0.824025754 	0.82652625  	0.829397149 	0.816775297 	0.831920873 
 Fc              	0.818442161 	0.823443267 	0.823464857 	0.825124471 	0.835429766 	0.827192351 
 Fc              	0.825685445 	0.834440731 	0.838470954 	0.835086449 	0.839611292 	0.824482368 
 Fc              	0.833576086 	0.828585886 	0.82553403  	0.84166535  	0.84212326  	0.831001187 
 Fc              	0.835166281 	0.835844929 	0.842523326 	0.841419345 	0.831184435 	0.841090282 
 Fc              	0.840838254 	0.831653172 	0.831172489 	0.835681629 	0.833010332 	0.82330735  
 Fc              	0.828759645 	0.823350835 	0.827399076 	0.832883784 	0.82996734  	0.820759028 
 Fc              	0.81641476  	0.822322607 	0.822725323 	0.808388676 	0.80826532  	0.81277427  
 Fc              	0.799130543 	0.807774038 	0.797150542 	0.796889254 	0.798378962 	0.799938493 
 Fc              	0.788718338 	0.777174422 	0.787994318 	0.786001482 	0.777144996 	0.772195526 
 Fc              	0.769295912 	0.763987555 	0.759932453 	0.755274444 	0.75116307  	0.753991905 
 Fc              	0.736156321 	0.748285659 	0.731922157 	0.735729688 	0.735392897 	0.717696853 
 Fc              	0.715627978 	0.710447915 	0.712952034 	0.715072718 	0.706835872 	0.690507891 
 Fc              	0.688298194 	0.687690734 	0.678067924 	0.679381118 	0.685662393 	0.669858397 
 Fc              	0.676145154 	0.671013872 	0.65790164  	0.662772778 	0.654521394 	0.649537914 
 Fc              	0.650752158 	0.649124274 	0.632373615 	0.643068819 	0.636041832 	0.627370023 
 Fc              	0.627605763 	0.626284705 	0.616064535 	0.620629117 	0.611847482 	0.612340119 
 Fc              	0.60613162  	0.600642335 	0.609601954 	0.609535676 	0.595732452 	0.607032318 
 Fc              	0.600993739 	0.591436221 	0.595197999 	0.598205135 	0.596975522 	0.588578899 
 Fc              	0.58060872  	0.591215727 	0.592478062 	0.579822536 	0.58547603  	0.591207431 
 Fc              	0.578638933 	0.576898025 	0.588581131 	0.580742513 	0.576176535 	0.575237022 
 Fc              	0.582484792 	0.575411095 	0.583854614 	0.587281143 	0.577644409 	0.583788905 
 Fc              	0.579911157 	0.586947681 	0.585983539 	0.580937183 	0.583282534 	0.580064725 
 Fc              	0.593168522 	0.585108512 	0.582794063 	0.590085893 	0.583890894 	0.594912231 
 Fc              	0.595737199 	0.582543331 	0.584882361 	0.58516013  	0.589630733 	0.593981803 
 Fc              	0.59571066  	0.603082393 	0.591244914 	0.599817056 	0.60442705  	0.601490757 
 Fc              	0.602147285 	0.60365868  	0.59922742  	0.601453064 	0.612247645 	0.60776243  
 Fc              	0.605388235 	0.604198066 	0.610094734 	0.612743987 	0.62230212  	0.611986591 
 Fc              	0.619759175 	0.625926411 	0.620509822 	0.615823699 	0.625936394 	0.61499159  
 Fc              	0.622163683 	0.63341445  	0.63131165  	0.622984495 	0.635731485 	0.623861761 
 Fc              	0.637494483 	0.62706031  	0.626477159 	0.628054255 	0.636349749 	0.630975409 
 Fc              	0.64099573  	0.633079611 	0.64402002  	0.644349805 	0.633016486 	0.63221994  
 Fc              	0.636723205 	0.638921874 	0.644270543 	0.644598573 	0.634719727 	0.630340222 
 Fc              	0.636268914 	0.643096596 	0.640878392 	0.634795036 	0.630953695 	0.644387608 
 Fc              	0.633594189 	0.643470126 	0.627915965 	0.629115049 	0.638360183 	0.631353452 
 Fc              	0.628707302 	0.629589558 	0.628012909 	0.633237296 	0.623133886 	0.627945361 
 Fc              	0.63078559  	0.62124934  	0.613030113 	0.608762353 	0.612573812 	0.617420953 
 
[CURVES]
;ID              	X-Value     	Y-Value

[CONTROLS]









[RULES]









[ENERGY]
 Global Efficiency  	75
 Global Price       	0
 Demand Charge      	0

[EMITTERS]
;Junction        	Coefficient
 1               	0.012055
 2               	0.033656
 3               	0.032088
 4               	0.005562
 5               	0.018383
 6               	0.019238
 7               	0.005300
 8               	0.018853
 9               	0.003532
 10              	0.019837
 11              	0.006270
 12              	0.024410
 13              	0.016842
 14              	0.019490
 15              	0.028884
 16              	0.013467
 17              	0.010957
 18              	0.005286
 19              	0.009203
 20              	0.010819
 21              	0.020118
 22              	0.034997

[QUALITY]
;Node            	InitQual

[SOURCES]
;Node            	Type        	Quality     	Pattern

[REACTIONS]
;Type     	Pipe/Tank       	Coefficient


[MIXING]
;Tank            	Model

[TIMES]
 Duration 24:00
 Hydraulic Timestep 1:00
 Pattern Timestep 0:01
 Report Timestep 1:00
 Statistic NONE

[REPORT]
 Status             	Full
 Summary            	Yes
 Page               	0

[OPTIONS]
 UNITS LPS
 HEADLOSS H-W
 SPECIFIC GRAVITY 1
 VISCOSITY 1
 TRIALS 100
 ACCURACY 0.001
 UNBALANCED CONTINUE
 PATTERN Fc
 DEMAND MULTIPLIER 1.0
 EMITTER EXPONENT 1.18
 QUALITY NONE

[COORDINATES]
;Node            	X-Coord           	Y-Coord
1               	-1864.905         	8032.305          
2               	-954.479          	8017.621          
3               	-161.527          	8002.937          
4               	778.267           	7988.253          
5               	2576.834          	7973.940          
6               	792.952           	6989.721          
7               	1717.358          	6992.620          
8               	323.054           	6108.664          
9               	910.426           	6108.664          
10              	-543.319          	6079.295          
11              	-513.950          	5227.606          
12              	-469.897          	4375.918          
13              	-1615.272         	4361.233          
14              	-2672.540         	3612.335          
15              	-396.476          	3289.280          
16              	-1585.903         	2364.170          
17              	-1021.454         	2354.028          
18              	-252.223          	1607.093          
19              	-363.706          	2298.286          
20              	602.056           	2320.117          
21              	1464.611          	2331.731          
22              	2902.738          	2376.324          
26              	-994.437          	4381.085          
27              	-396.384          	3713.491          
28              	1954.103          	2364.395          
23              	-2863.436         	8017.621          
24              	-2834.068         	5124.816          
25              	-2599.119         	2290.749          

[VERTICES]
;Link            	X-Coord           	Y-Coord

[LABELS]
;X-Coord             Y-Coord             Label & Anchor Node

[BACKDROP]
  DIMENSIONS  	0.000             	0.000             	10000.000         	10000.000         
 UNITS          	None
 FILE           	
 OFFSET         	0.00            	0.00            

[END]
